NAME /Users/henri/Research/solvers/instances/idol-instances/robust/collection/spp_dkp_Lefebvre_et_al_2026/shortest_path_7_10/models/uncertain_ctr/model
ROWS
 N  OBJ
 E  flow_cons_inner_nodes[0]
 E  flow_cons_inner_nodes[2]
 E  flow_cons_inner_nodes[3]
 E  flow_cons_inner_nodes[5]
 E  flow_cons_inner_nodes[6]
 E  flow_cons_source
 E  flow_cons_target
 G  c_384
COLUMNS
    z          OBJ        1
    z          c_384      1
    MARKER    'MARKER'                 'INTORG'
    y[0,2]     OBJ        0
    y[0,2]     c_384      -49.09
    y[0,2]     flow_cons_inner_nodes[2] 1
    y[0,2]     flow_cons_inner_nodes[0] -1
    y[0,3]     OBJ        0
    y[0,3]     c_384      -18.11
    y[0,3]     flow_cons_inner_nodes[3] 1
    y[0,3]     flow_cons_inner_nodes[0] -1
    y[0,4]     OBJ        0
    y[0,4]     c_384      -22.02
    y[0,4]     flow_cons_target 1
    y[0,4]     flow_cons_inner_nodes[0] -1
    y[0,5]     OBJ        0
    y[0,5]     c_384      -24.76
    y[0,5]     flow_cons_inner_nodes[5] 1
    y[0,5]     flow_cons_inner_nodes[0] -1
    y[0,6]     OBJ        0
    y[0,6]     c_384      -50.99
    y[0,6]     flow_cons_inner_nodes[6] 1
    y[0,6]     flow_cons_inner_nodes[0] -1
    y[1,2]     OBJ        0
    y[1,2]     flow_cons_source 1
    y[1,2]     c_384      -35.85
    y[1,2]     flow_cons_inner_nodes[2] 1
    y[1,6]     OBJ        0
    y[1,6]     c_384      -48.84
    y[1,6]     flow_cons_source 1
    y[1,6]     flow_cons_inner_nodes[6] 1
    y[2,0]     OBJ        0
    y[2,0]     c_384      -49.09
    y[2,0]     flow_cons_inner_nodes[2] -1
    y[2,0]     flow_cons_inner_nodes[0] 1
    y[2,1]     OBJ        0
    y[2,1]     flow_cons_source -1
    y[2,1]     c_384      -35.85
    y[2,1]     flow_cons_inner_nodes[2] -1
    y[2,3]     OBJ        0
    y[2,3]     flow_cons_inner_nodes[3] 1
    y[2,3]     c_384      -43.93
    y[2,3]     flow_cons_inner_nodes[2] -1
    y[2,4]     OBJ        0
    y[2,4]     c_384      -51.62
    y[2,4]     flow_cons_target 1
    y[2,4]     flow_cons_inner_nodes[2] -1
    y[2,5]     OBJ        0
    y[2,5]     flow_cons_inner_nodes[5] 1
    y[2,5]     c_384      -25.63
    y[2,5]     flow_cons_inner_nodes[2] -1
    y[2,6]     OBJ        0
    y[2,6]     flow_cons_inner_nodes[6] 1
    y[2,6]     c_384      -19.24
    y[2,6]     flow_cons_inner_nodes[2] -1
    y[3,0]     OBJ        0
    y[3,0]     c_384      -18.11
    y[3,0]     flow_cons_inner_nodes[3] -1
    y[3,0]     flow_cons_inner_nodes[0] 1
    y[3,2]     OBJ        0
    y[3,2]     flow_cons_inner_nodes[3] -1
    y[3,2]     c_384      -43.93
    y[3,2]     flow_cons_inner_nodes[2] 1
    y[3,4]     OBJ        0
    y[3,4]     c_384      -38.48
    y[3,4]     flow_cons_target 1
    y[3,4]     flow_cons_inner_nodes[3] -1
    y[3,5]     OBJ        0
    y[3,5]     c_384      -19
    y[3,5]     flow_cons_inner_nodes[5] 1
    y[3,5]     flow_cons_inner_nodes[3] -1
    y[3,6]     OBJ        0
    y[3,6]     c_384      -52.61
    y[3,6]     flow_cons_inner_nodes[6] 1
    y[3,6]     flow_cons_inner_nodes[3] -1
    y[4,0]     OBJ        0
    y[4,0]     c_384      -22.02
    y[4,0]     flow_cons_target -1
    y[4,0]     flow_cons_inner_nodes[0] 1
    y[4,2]     OBJ        0
    y[4,2]     c_384      -51.62
    y[4,2]     flow_cons_target -1
    y[4,2]     flow_cons_inner_nodes[2] 1
    y[4,3]     OBJ        0
    y[4,3]     c_384      -38.48
    y[4,3]     flow_cons_target -1
    y[4,3]     flow_cons_inner_nodes[3] 1
    y[4,5]     OBJ        0
    y[4,5]     c_384      -35.13
    y[4,5]     flow_cons_target -1
    y[4,5]     flow_cons_inner_nodes[5] 1
    y[4,6]     OBJ        0
    y[4,6]     c_384      -45
    y[4,6]     flow_cons_target -1
    y[4,6]     flow_cons_inner_nodes[6] 1
    y[5,0]     OBJ        0
    y[5,0]     c_384      -24.76
    y[5,0]     flow_cons_inner_nodes[5] -1
    y[5,0]     flow_cons_inner_nodes[0] 1
    y[5,2]     OBJ        0
    y[5,2]     flow_cons_inner_nodes[5] -1
    y[5,2]     c_384      -25.63
    y[5,2]     flow_cons_inner_nodes[2] 1
    y[5,3]     OBJ        0
    y[5,3]     c_384      -19
    y[5,3]     flow_cons_inner_nodes[5] -1
    y[5,3]     flow_cons_inner_nodes[3] 1
    y[5,4]     OBJ        0
    y[5,4]     c_384      -35.13
    y[5,4]     flow_cons_target 1
    y[5,4]     flow_cons_inner_nodes[5] -1
    y[5,6]     OBJ        0
    y[5,6]     c_384      -33.96
    y[5,6]     flow_cons_inner_nodes[6] 1
    y[5,6]     flow_cons_inner_nodes[5] -1
    y[6,0]     OBJ        0
    y[6,0]     c_384      -50.99
    y[6,0]     flow_cons_inner_nodes[6] -1
    y[6,0]     flow_cons_inner_nodes[0] 1
    y[6,1]     OBJ        0
    y[6,1]     c_384      -48.84
    y[6,1]     flow_cons_source -1
    y[6,1]     flow_cons_inner_nodes[6] -1
    y[6,2]     OBJ        0
    y[6,2]     flow_cons_inner_nodes[6] -1
    y[6,2]     c_384      -19.24
    y[6,2]     flow_cons_inner_nodes[2] 1
    y[6,3]     OBJ        0
    y[6,3]     c_384      -52.61
    y[6,3]     flow_cons_inner_nodes[6] -1
    y[6,3]     flow_cons_inner_nodes[3] 1
    y[6,4]     OBJ        0
    y[6,4]     c_384      -45
    y[6,4]     flow_cons_target 1
    y[6,4]     flow_cons_inner_nodes[6] -1
    y[6,5]     OBJ        0
    y[6,5]     c_384      -33.96
    y[6,5]     flow_cons_inner_nodes[6] -1
    y[6,5]     flow_cons_inner_nodes[5] 1
    MARKER    'MARKER'                 'INTEND'
RHS
    RHS       flow_cons_inner_nodes[0] -0
    RHS       flow_cons_inner_nodes[2] -0
    RHS       flow_cons_inner_nodes[3] -0
    RHS       flow_cons_inner_nodes[5] -0
    RHS       flow_cons_inner_nodes[6] -0
    RHS       flow_cons_source 1
    RHS       flow_cons_target 1
    RHS       c_384      -0
BOUNDS
 LI BND       y[0,2]     0
 UI BND       y[0,2]     1
 LI BND       y[0,3]     0
 UI BND       y[0,3]     1
 LI BND       y[0,4]     0
 UI BND       y[0,4]     1
 LI BND       y[0,5]     0
 UI BND       y[0,5]     1
 LI BND       y[0,6]     0
 UI BND       y[0,6]     1
 LI BND       y[1,2]     0
 UI BND       y[1,2]     1
 LI BND       y[1,6]     0
 UI BND       y[1,6]     1
 LI BND       y[2,0]     0
 UI BND       y[2,0]     1
 LI BND       y[2,1]     0
 UI BND       y[2,1]     1
 LI BND       y[2,3]     0
 UI BND       y[2,3]     1
 LI BND       y[2,4]     0
 UI BND       y[2,4]     1
 LI BND       y[2,5]     0
 UI BND       y[2,5]     1
 LI BND       y[2,6]     0
 UI BND       y[2,6]     1
 LI BND       y[3,0]     0
 UI BND       y[3,0]     1
 LI BND       y[3,2]     0
 UI BND       y[3,2]     1
 LI BND       y[3,4]     0
 UI BND       y[3,4]     1
 LI BND       y[3,5]     0
 UI BND       y[3,5]     1
 LI BND       y[3,6]     0
 UI BND       y[3,6]     1
 LI BND       y[4,0]     0
 UI BND       y[4,0]     1
 LI BND       y[4,2]     0
 UI BND       y[4,2]     1
 LI BND       y[4,3]     0
 UI BND       y[4,3]     1
 LI BND       y[4,5]     0
 UI BND       y[4,5]     1
 LI BND       y[4,6]     0
 UI BND       y[4,6]     1
 LI BND       y[5,0]     0
 UI BND       y[5,0]     1
 LI BND       y[5,2]     0
 UI BND       y[5,2]     1
 LI BND       y[5,3]     0
 UI BND       y[5,3]     1
 LI BND       y[5,4]     0
 UI BND       y[5,4]     1
 LI BND       y[5,6]     0
 UI BND       y[5,6]     1
 LI BND       y[6,0]     0
 UI BND       y[6,0]     1
 LI BND       y[6,1]     0
 UI BND       y[6,1]     1
 LI BND       y[6,2]     0
 UI BND       y[6,2]     1
 LI BND       y[6,3]     0
 UI BND       y[6,3]     1
 LI BND       y[6,4]     0
 UI BND       y[6,4]     1
 LI BND       y[6,5]     0
 UI BND       y[6,5]     1
 LO BND       z          0
 UP BND       z          1486.51
ENDATA
